PROBLEM NAME: 	berlin26-TTP
KNAPSACK DATA TYPE: bounded strongly corr
DIMENSION:	26
NUMBER OF ITEMS: 	25
CAPACITY OF KNAPSACK: 	4046
MIN SPEED: 	0.1
MAX SPEED: 	1
RENTING RATIO: 	0.31
EDGE_WEIGHT_TYPE:	CEIL_2D
NODE_COORD_SECTION	(INDEX, X, Y): 
1	565.0	575.0
2	25.0	185.0
3	345.0	750.0
4	945.0	685.0
5	845.0	655.0
6	880.0	660.0
7	25.0	230.0
8	525.0	1000.0
9	580.0	1175.0
10	650.0	1130.0
11	1605.0	620.0
12	1220.0	580.0
13	1465.0	200.0
14	1530.0	5.0
15	845.0	680.0
16	725.0	370.0
17	145.0	665.0
18	415.0	635.0
19	510.0	875.0
20	560.0	365.0
21	300.0	465.0
22	520.0	585.0
23	480.0	415.0
24	835.0	625.0
25	975.0	580.0
26	1215.0	245.0
ITEMS SECTION	(INDEX, PROFIT, WEIGHT, ASSIGNED NODE NUMBER): 
1	101	1	2
2	202	2	3
3	404	4	4
4	202	2	5
5	996	896	6
6	1992	1792	7
7	3984	3584	8
8	467	367	9
9	934	734	10
10	1868	1468	11
11	790	690	12
12	790	690	13
13	713	613	14
14	1426	1226	15
15	2852	2452	16
16	974	874	17
17	974	874	18
18	222	122	19
19	444	244	20
20	888	488	21
21	666	366	22
22	586	486	23
23	1172	972	24
24	1172	972	25
25	923	823	26
